c ind 199 194 110 109 108 107 106 105 104 103 161 102 101 159 100 99 98 111 112 113 114 115 116 117 118 119 120 121 122 123 124 125 157 156 155 138 137 136 135 134 133 132 131 130 129 128 127 126 139 140 141 142 143 144 145 146 147 148 149 150 151 152 153 154 0
p cnf 225 313
1 0
-2 0
1 0
-2 0
-3 0
-4 0
-5 0
-6 0
-7 0
-8 0
-9 0
-10 0
-11 0
-12 0
-13 0
-14 0
-15 0
-16 0
-17 0
-18 0
-19 0
-20 0
-21 0
-22 0
-23 0
-24 0
-25 0
-26 0
-27 0
-28 0
-29 0
-30 0
-31 0
-32 0
-33 0
-34 0
-35 0
-36 0
-37 0
-38 0
-39 0
-40 0
-41 0
-42 0
-43 0
-44 0
-45 0
-46 0
-47 0
-48 0
-49 0
-50 0
-51 0
-52 0
-53 0
-54 0
-55 0
56 0
-57 0
-58 0
-59 0
-60 0
-61 0
-62 0
-63 0
-64 0
-65 0
-66 0
-67 0
-68 0
-69 0
-70 0
-71 0
-72 0
-73 0
-74 0
-75 0
-76 0
-77 0
-78 0
-79 0
-80 0
-81 0
-82 0
-83 0
-84 0
-85 0
-86 0
-87 0
88 0
-88 89 -90 0
-88 -89 90 0
88 89 90 0
88 -89 -90 0
91 0
-91 92 -93 0
-91 -92 93 0
91 92 93 0
91 -92 -93 0
94 0
-94 95 -96 0
-94 -95 96 0
94 95 96 0
94 -95 -96 0
-96 56 97 0
-96 -56 -97 0
96 -56 97 0
96 56 -97 0
-98 0
-99 0
-100 0
-101 0
-102 0
-103 0
-104 0
-105 0
-106 0
-107 0
-108 0
-109 0
-110 0
-111 0
-112 0
-113 0
-114 0
-115 0
-116 0
-117 0
-118 0
-119 0
-120 0
-121 0
-122 0
-123 0
-124 0
-125 0
126 0
-127 0
-128 0
-129 0
-130 0
-131 0
-132 0
-133 0
-134 0
-135 0
-136 0
-137 0
-138 0
-139 0
-140 0
-141 0
-142 0
-143 0
-144 0
-145 0
-146 0
-147 0
-148 0
-149 0
-150 0
-151 0
-152 0
-153 0
-154 0
-155 0
-156 0
-157 0
158 0
-158 159 -90 0
-158 -159 90 0
158 159 90 0
158 -159 -90 0
160 0
-160 161 -93 0
-160 -161 93 0
160 161 93 0
160 -161 -93 0
-162 0
-163 0
-164 0
-165 0
-166 0
-167 0
-168 0
-169 0
-170 0
-171 0
-172 0
-173 0
-174 0
-175 0
-176 0
-177 0
-178 0
-179 0
-180 0
-181 0
-182 0
-183 0
-184 0
-185 0
-186 0
187 0
-187 188 -90 0
-187 -188 90 0
187 188 90 0
187 -188 -90 0
189 0
-189 190 -93 0
-189 -190 93 0
189 190 93 0
189 -190 -93 0
191 0
-191 192 -96 0
-191 -192 96 0
191 192 96 0
191 -192 -96 0
193 0
-193 -194 97 0
-193 194 -97 0
193 -194 -97 0
193 194 97 0
195 0
-195 196 -197 0
-195 -196 197 0
195 196 197 0
195 -196 -197 0
-197 198 97 0
-197 -198 -97 0
197 -198 97 0
197 198 -97 0
-196 199 194 0
-196 -199 -194 0
196 -199 194 0
196 199 -194 0
200 0
-200 201 -202 0
-200 -201 202 0
200 201 202 0
200 -201 -202 0
-202 97 0
-202 198 0
202 -97 -198 0
-201 194 0
-201 199 0
201 -194 -199 0
203 0
-203 204 -56 0
-203 -204 56 0
203 204 56 0
203 -204 -56 0
205 0
-205 206 -56 0
-205 -206 56 0
205 206 56 0
205 -206 -56 0
207 0
-207 208 -209 0
-207 -208 209 0
207 208 209 0
207 -208 -209 0
-209 198 0
-209 210 0
209 -198 -210 0
-210 97 0
-210 56 0
210 -97 -56 0
211 0
-211 212 -213 0
-211 -212 213 0
211 212 213 0
211 -212 -213 0
-213 210 198 0
-213 -210 -198 0
213 -210 198 0
213 210 -198 0
214 0
-214 215 -56 0
-214 -215 56 0
214 215 56 0
214 -215 -56 0
216 0
-216 217 -56 0
-216 -217 56 0
216 217 56 0
216 -217 -56 0
218 0
-218 219 -209 0
-218 -219 209 0
218 219 209 0
218 -219 -209 0
220 0
-220 221 -213 0
-220 -221 213 0
220 221 213 0
220 -221 -213 0
222 0
222 199 0
222 -223 0
-222 -199 223 0
-223 -93 0
-223 -194 0
-223 199 0
223 93 194 -199 0
224 0
224 198 0
224 -225 0
-224 -198 225 0
-225 -93 0
-225 -97 0
-225 198 0
225 93 97 -198 0
